Minimize
 +100000 t_30_0_31_0  +100000 t_30_1_31_1  +100000 t_30_2_31_2 
 +100000 t_39_0_45_0  +100000 t_39_0_45_2  +100000 t_24_0_25_0 
 +100000 t_24_0_25_2  +100000 t_22_0_23_0  +100000 t_32_0_38_0 
 +100000 t_32_1_38_1  +100000 t_32_2_38_2  +100000 t_24_0_26_0 
 +100000 t_24_0_26_2  +100000 t_47_0_49_0  +100000 t_47_1_49_1 
 +100000 t_47_2_49_2  +100000 t_38_2_39_0  +100000 t_38_0_39_0 
 +100000 t_41_0_50_0  +100000 t_41_1_50_1  +100000 t_41_2_50_2 
 +100000 t_35_0_38_0  +100000 t_35_0_38_2  +100000 t_34_0_36_0 
 +100000 t_34_1_36_1  +100000 t_34_2_36_2  +100000 t_48_0_50_0 
 +100000 t_48_1_50_1  +100000 t_48_2_50_2  +100000 t_6_0_13_1_20_0 
 +100000 t_50_0_51_0  +100000 t_50_1_51_1  +100000 t_50_2_51_2 
 +100000 t_41_2_46_0  +100000 t_41_0_46_0  +100000 t_46_0_50_0 
 +100000 t_46_0_50_2  +100000 t_41_0_48_0  +100000 t_41_1_48_1 
 +100000 t_41_2_48_2  +100000 t_18_0_20_0  +100000 t_41_0_51_0 
 +100000 t_41_1_51_1  +100000 t_41_2_51_2  +100000 t_40_0_55_1_58_0 
 +100000 t_41_2_55_1_58_0  +100000 t_48_0_51_0  +100000 t_48_1_51_1 
 +100000 t_48_2_51_2  +100000 t_46_0_48_0  +100000 t_46_0_48_2 
 +100000 t_4_0_7_0  +100000 t_44_2_55_1_58_0  +100000 t_46_0_55_1_58_0 
 +100000 t_8_0_11_0  +100000 t_5_0_7_0  +100000 t_40_0_43_0 
 +100000 t_6_0_13_1_18_0  +100000 t_34_2_35_0  +100000 t_34_0_35_0 
 +100000 t_43_0_45_0  +100000 t_43_0_45_2  +100000 t_32_0_34_0 
 +100000 t_32_1_34_1  +100000 t_32_2_34_2  +100000 t_9_0_10_0 
 +100000 t_21_0_23_0  +100000 t_43_0_55_1_58_0  +100000 t_36_0_50_0 
 +100000 t_36_1_50_1  +100000 t_36_2_50_2  +100000 t_45_2_55_1_58_0 
 +100000 t_43_0_44_0  +100000 t_43_0_44_2  +100000 t_34_2_39_0 
 +100000 t_34_0_39_0  +100000 t_38_2_43_0  +100000 t_38_0_43_0 
 +100000 t_62_1_63_0  +100000 t_38_2_40_0  +100000 t_38_0_40_0 
 +100000 t_13_0_17_0  +100000 t_13_1_17_1  +100000 t_13_2_17_2 
 +100000 t_36_0_48_0  +100000 t_36_1_48_1  +100000 t_36_2_48_2 
 +100000 t_36_2_55_1_58_0  +100000 t_43_0_49_0  +100000 t_43_0_49_2 
 +100000 t_52_0_55_0  +100000 t_52_0_55_2  +100000 t_47_0_50_0 
 +100000 t_47_1_50_1  +100000 t_47_2_50_2  +100000 t_38_0_44_0 
 +100000 t_38_1_44_1  +100000 t_38_2_44_2  +100000 t_52_0_56_0 
 +100000 t_5_0_13_1_20_0  +100000 t_40_0_41_0  +100000 t_40_0_41_2 
 +100000 t_41_0_42_0  +100000 t_41_1_42_1  +100000 t_41_2_42_2 
 +100000 t_62_1_66_0  +100000 t_41_0_45_0  +100000 t_41_1_45_1 
 +100000 t_41_2_45_2  +100000 t_47_0_48_0  +100000 t_47_1_48_1 
 +100000 t_47_2_48_2  +100000 t_64_0_65_0  +100000 t_64_1_65_1 
 +100000 t_64_2_65_2  +100000 t_47_0_51_0  +100000 t_47_1_51_1 
 +100000 t_47_2_51_2  +100000 t_53_0_54_0  +100000 t_40_0_46_0 
 +100000 t_45_0_50_0  +100000 t_45_1_50_1  +100000 t_45_2_50_2 
 +100000 t_35_0_37_0  +100000 t_35_0_37_2  +100000 t_39_0_41_0 
 +100000 t_39_0_41_2  +100000 t_42_2_46_0  +100000 t_42_0_46_0 
 +100000 t_41_0_44_0  +100000 t_41_1_44_1  +100000 t_41_2_44_2 
 +100000 t_45_2_46_0  +100000 t_45_0_46_0  +100000 t_38_0_41_0 
 +100000 t_38_1_41_1  +100000 t_38_2_41_2  +100000 t_8_0_17_1_23_0 
 +100000 t_44_0_48_0  +100000 t_44_1_48_1  +100000 t_44_2_48_2 
 +100000 t_37_2_43_0  +100000 t_37_0_43_0  +100000 t_11_0_12_0 
 +100000 t_10_0_11_0  +100000 t_54_0_56_0  +100000 t_45_0_48_0 
 +100000 t_45_1_48_1  +100000 t_45_2_48_2  +100000 t_44_2_46_0 
 +100000 t_44_0_46_0  +100000 t_14_0_16_0  +100000 t_14_1_16_1 
 +100000 t_14_2_16_2  +100000 t_38_2_46_0  +100000 t_38_0_46_0 
 +100000 t_42_0_50_0  +100000 t_42_1_50_1  +100000 t_42_2_50_2 
 +100000 t_41_0_49_0  +100000 t_41_1_49_1  +100000 t_41_2_49_2 
 +100000 t_39_0_55_1_58_0  +100000 t_36_2_39_0  +100000 t_36_0_39_0 
 +100000 t_7_0_13_1_19_0  +100000 t_31_0_33_0  +100000 t_31_1_33_1 
 +100000 t_31_2_33_2  +100000 t_35_0_39_0  +100000 t_8_0_17_1_22_0 
 +100000 t_5_0_15_1  +100000 t_46_0_49_0  +100000 t_46_0_49_2 
 +100000 t_42_0_48_0  +100000 t_42_1_48_1  +100000 t_42_2_48_2 
 +100000 t_49_0_50_0  +100000 t_49_1_50_1  +100000 t_49_2_50_2 
 +100000 t_36_2_40_0  +100000 t_36_0_40_0  +100000 t_5_0_13_1_19_0 
 +100000 t_39_0_43_0  +100000 t_9_0_12_0  +100000 t_36_0_44_0 
 +100000 t_36_1_44_1  +100000 t_36_2_44_2  +100000 t_20_0_22_0 
 +100000 t_33_2_40_0  +100000 t_33_0_40_0  +100000 t_37_2_39_0 
 +100000 t_37_0_39_0  +100000 t_52_0_53_0  +100000 t_32_2_40_0 
 +100000 t_32_0_40_0  +100000 t_44_0_47_0  +100000 t_44_1_47_1 
 +100000 t_44_2_47_2  +100000 t_33_0_38_0  +100000 t_33_1_38_1 
 +100000 t_33_2_38_2  +100000 t_40_0_45_0  +100000 t_40_0_45_2 
 +100000 t_39_0_40_0  +100000 t_40_0_44_0  +100000 t_40_0_44_2 
 +100000 t_19_0_23_0  +100000 t_32_0_44_0  +100000 t_32_1_44_1 
 +100000 t_32_2_44_2  +100000 t_37_0_45_0  +100000 t_37_1_45_1 
 +100000 t_37_2_45_2  +100000 t_44_0_45_0  +100000 t_44_1_45_1 
 +100000 t_44_2_45_2  +100000 t_40_0_42_0  +100000 t_40_0_42_2 
 +100000 t_39_0_44_0  +100000 t_39_0_44_2  +100000 t_6_0_7_0 
 +100000 t_28_2_29_0  +100000 t_28_0_29_0  +100000 t_42_0_45_0 
 +100000 t_42_1_45_1  +100000 t_42_2_45_2  +100000 t_63_0_64_1 
 +100000 t_37_0_38_0  +100000 t_37_1_38_1  +100000 t_37_2_38_2 
 +100000 t_27_0_28_0  +100000 t_27_0_28_2  +100000 t_6_0_15_1 
 +100000 t_29_0_31_0  +100000 t_29_0_31_2  +100000 t_20_0_21_0 
 +100000 t_45_0_49_0  +100000 t_45_1_49_1  +100000 t_45_2_49_2 
 +100000 t_38_0_42_0  +100000 t_38_1_42_1  +100000 t_38_2_42_2 
 +100000 t_37_0_49_0  +100000 t_37_1_49_1  +100000 t_37_2_49_2 
 +100000 t_31_2_35_0  +100000 t_31_0_35_0  +100000 t_46_0_47_0 
 +100000 t_46_0_47_2  +100000 t_5_0_14_1  +100000 t_42_0_49_0 
 +100000 t_42_1_49_1  +100000 t_42_2_49_2  +100000 t_33_0_34_0 
 +100000 t_33_1_34_1  +100000 t_33_2_34_2  +100000 t_16_0_17_0 
 +100000 t_16_1_17_1  +100000 t_16_2_17_2  +100000 t_36_2_46_0 
 +100000 t_36_0_46_0  +100000 t_64_1_66_0  +100000 t_15_0_16_0 
 +100000 t_15_1_16_1  +100000 t_15_2_16_2  +100000 t_41_2_43_0 
 +100000 t_41_0_43_0  +100000 t_55_2_56_0  +100000 t_55_0_56_0 
 +100000 t_8_0_9_0  +100000 t_43_0_46_0  +100000 t_54_0_55_0 
 +100000 t_54_0_55_2  +100000 t_34_0_37_0  +100000 t_34_1_37_1 
 +100000 t_34_2_37_2  +100000 t_37_0_41_0  +100000 t_37_1_41_1 
 +100000 t_37_2_41_2  +100000 t_6_0_13_1_19_0  +100000 t_19_0_21_0 
 +100000 t_13_0_15_0  +100000 t_13_1_15_1  +100000 t_13_2_15_2 
 +100000 t_18_0_19_0  +100000 t_37_2_46_0  +100000 t_37_0_46_0 
 +100000 t_35_0_36_0  +100000 t_35_0_36_2  +100000 t_15_0_17_0 
 +100000 t_15_1_17_1  +100000 t_15_2_17_2  +100000 t_18_0_23_0 
 +100000 t_36_2_43_0  +100000 t_36_0_43_0  +100000 t_7_0_15_1 
 +100000 t_4_0_5_0  +100000 t_33_0_36_0  +100000 t_33_1_36_1 
 +100000 t_33_2_36_2  +100000 t_7_0_13_1_20_0  +100000 t_33_2_35_0 
 +100000 t_33_0_35_0  +100000 t_37_0_50_0  +100000 t_37_1_50_1 
 +100000 t_37_2_50_2  +100000 t_21_0_22_0  +100000 t_8_0_17_1_21_0 
 +100000 t_63_0_65_1  +100000 t_18_0_22_0  +100000 t_6_0_14_1 
 +100000 t_53_0_56_0  +100000 t_36_0_37_0  +100000 t_36_1_37_1 
 +100000 t_36_2_37_2  +100000 t_43_0_47_0  +100000 t_43_0_47_2 
 +100000 t_32_2_35_0  +100000 t_32_0_35_0  +100000 t_53_0_55_0 
 +100000 t_53_0_55_2  +100000 t_37_2_55_1_58_0  +100000 t_34_2_40_0 
 +100000 t_34_0_40_0  +100000 t_42_0_51_0  +100000 t_42_1_51_1 
 +100000 t_42_2_51_2  +100000 t_7_0_13_1_18_0  +100000 t_42_2_55_1_58_0 
 +100000 t_32_0_33_0  +100000 t_32_1_33_1  +100000 t_32_2_33_2 
 +100000 t_65_1_66_0  +100000 t_5_0_13_1_18_0  +100000 t_33_2_39_0 
 +100000 t_33_0_39_0  +100000 t_28_0_30_0  +100000 t_28_1_30_1 
 +100000 t_28_2_30_2  +100000 t_19_0_20_0  +100000 t_34_0_38_0 
 +100000 t_34_1_38_1  +100000 t_34_2_38_2  +100000 t_32_0_37_0 
 +100000 t_32_1_37_1  +100000 t_32_2_37_2  +100000 t_42_2_43_0 
 +100000 t_42_0_43_0  +100000 t_29_0_30_0  +100000 t_29_0_30_2 
 +100000 t_27_0_30_0  +100000 t_27_0_30_2  +100000 t_48_0_49_0 
 +100000 t_48_1_49_1  +100000 t_48_2_49_2  +100000 t_44_0_50_0 
 +100000 t_44_1_50_1  +100000 t_44_2_50_2  +100000 t_31_0_32_0 
 +100000 t_31_1_32_1  +100000 t_31_2_32_2  +100000 t_36_0_42_0 
 +100000 t_36_1_42_1  +100000 t_36_2_42_2  +100000 t_36_0_45_0 
 +100000 t_36_1_45_1  +100000 t_36_2_45_2  +100000 t_9_0_11_0 
 +100000 t_33_0_44_0  +100000 t_33_1_44_1  +100000 t_33_2_44_2 
 +100000 t_13_0_14_0  +100000 t_13_1_14_1  +100000 t_13_2_14_2 
 +100000 t_36_0_38_0  +100000 t_36_1_38_1  +100000 t_36_2_38_2 
 +100000 t_38_2_55_1_58_0  +100000 t_37_2_40_0  +100000 t_37_0_40_0 
 +100000 t_43_0_50_0  +100000 t_43_0_50_2  +100000 t_5_0_6_0 
 +100000 t_7_0_14_1  +100000 t_42_0_47_0  +100000 t_42_1_47_1 
 +100000 t_42_2_47_2  +100000 t_45_0_47_0  +100000 t_45_1_47_1 
 +100000 t_45_2_47_2  +100000 t_36_0_49_0  +100000 t_36_1_49_1 
 +100000 t_36_2_49_2  +100000 t_43_0_48_0  +100000 t_43_0_48_2 
 +100000 t_37_0_44_0  +100000 t_37_1_44_1  +100000 t_37_2_44_2 
 +100000 t_32_2_39_0  +100000 t_32_0_39_0  +100000 t_62_0_64_0 
 +100000 t_62_1_64_1  +100000 t_62_2_64_2  +100000 t_14_0_15_0 
 +100000 t_14_1_15_1  +100000 t_14_2_15_2  +100000 t_42_0_44_0 
 +100000 t_42_1_44_1  +100000 t_42_2_44_2  +100000 t_39_0_42_0 
 +100000 t_39_0_42_2 -2 d0_0 -2 d1_0 -2 d2_0 -2 d3_0 -2 d4_0 -2 d5_0 -2 d6_0 
-2 d7_0 -2 d8_0 -2 d9_0 -2 d10_0 -2 d11_0 -2 d12_0 +1 d13_3 +1 d14_3 +1 d15_3 
+1 d16_3 +1 d17_3 -2 d18_0 -2 d19_0 -2 d20_0 -2 d21_0 -2 d22_0 -2 d23_0 
-2 d24_0 +1 d25_3 +1 d26_3 -2 d27_0 +1 d28_3 -2 d29_0 +1 d30_3 +1 d31_3 
+1 d32_3 +1 d33_3 +1 d34_3 -2 d35_0 +1 d36_3 +1 d37_3 +1 d38_3 -2 d39_0 
-2 d40_0 +1 d41_3 +1 d42_3 -2 d43_0 +1 d44_3 +1 d45_3 -2 d46_0 +1 d47_3 
+1 d48_3 +1 d49_3 +1 d50_3 +1 d51_3 -2 d52_0 -2 d53_0 -2 d54_0 +1 d55_3 
-2 d56_0 -2 d57_0 -2 d58_0 -1 d59_0 -2 d60_0 -2 d61_0 +2 d62_3 -2 d63_0 
+2 d64_3 +2 d65_3 -2 d66_0  +75 t

Subject to
+1 d30_0 +1 d31_0 - t_30_0_31_0 <= 1
+1 d30_1 +1 d31_1 - t_30_1_31_1 <= 1
+1 d30_2 +1 d31_2 - t_30_2_31_2 <= 1
+1 d39_0 +1 d45_0 - t_39_0_45_0 <= 1
+1 d39_0 +1 d45_2 - t_39_0_45_2 <= 1
+1 d24_0 +1 d25_0 - t_24_0_25_0 <= 1
+1 d24_0 +1 d25_2 - t_24_0_25_2 <= 1
+1 d22_0 +1 d23_0 - t_22_0_23_0 <= 1
+1 d32_0 +1 d38_0 - t_32_0_38_0 <= 1
+1 d32_1 +1 d38_1 - t_32_1_38_1 <= 1
+1 d32_2 +1 d38_2 - t_32_2_38_2 <= 1
+1 d24_0 +1 d26_0 - t_24_0_26_0 <= 1
+1 d24_0 +1 d26_2 - t_24_0_26_2 <= 1
+1 d47_0 +1 d49_0 - t_47_0_49_0 <= 1
+1 d47_1 +1 d49_1 - t_47_1_49_1 <= 1
+1 d47_2 +1 d49_2 - t_47_2_49_2 <= 1
+1 d38_2 +1 d39_0 - t_38_2_39_0 <= 1
+1 d38_0 +1 d39_0 - t_38_0_39_0 <= 1
+1 d41_0 +1 d50_0 - t_41_0_50_0 <= 1
+1 d41_1 +1 d50_1 - t_41_1_50_1 <= 1
+1 d41_2 +1 d50_2 - t_41_2_50_2 <= 1
+1 d35_0 +1 d38_0 - t_35_0_38_0 <= 1
+1 d35_0 +1 d38_2 - t_35_0_38_2 <= 1
+1 d34_0 +1 d36_0 - t_34_0_36_0 <= 1
+1 d34_1 +1 d36_1 - t_34_1_36_1 <= 1
+1 d34_2 +1 d36_2 - t_34_2_36_2 <= 1
+1 d48_0 +1 d50_0 - t_48_0_50_0 <= 1
+1 d48_1 +1 d50_1 - t_48_1_50_1 <= 1
+1 d48_2 +1 d50_2 - t_48_2_50_2 <= 1
+1 d6_0 +1 d13_1 +1 d20_0 - t_6_0_13_1_20_0 <= 2
+1 d50_0 +1 d51_0 - t_50_0_51_0 <= 1
+1 d50_1 +1 d51_1 - t_50_1_51_1 <= 1
+1 d50_2 +1 d51_2 - t_50_2_51_2 <= 1
+1 d41_2 +1 d46_0 - t_41_2_46_0 <= 1
+1 d41_0 +1 d46_0 - t_41_0_46_0 <= 1
+1 d46_0 +1 d50_0 - t_46_0_50_0 <= 1
+1 d46_0 +1 d50_2 - t_46_0_50_2 <= 1
+1 d41_0 +1 d48_0 - t_41_0_48_0 <= 1
+1 d41_1 +1 d48_1 - t_41_1_48_1 <= 1
+1 d41_2 +1 d48_2 - t_41_2_48_2 <= 1
+1 d18_0 +1 d20_0 - t_18_0_20_0 <= 1
+1 d41_0 +1 d51_0 - t_41_0_51_0 <= 1
+1 d41_1 +1 d51_1 - t_41_1_51_1 <= 1
+1 d41_2 +1 d51_2 - t_41_2_51_2 <= 1
+1 d40_0 +1 d55_1 +1 d58_0 - t_40_0_55_1_58_0 <= 2
+1 d41_2 +1 d55_1 +1 d58_0 - t_41_2_55_1_58_0 <= 2
+1 d48_0 +1 d51_0 - t_48_0_51_0 <= 1
+1 d48_1 +1 d51_1 - t_48_1_51_1 <= 1
+1 d48_2 +1 d51_2 - t_48_2_51_2 <= 1
+1 d46_0 +1 d48_0 - t_46_0_48_0 <= 1
+1 d46_0 +1 d48_2 - t_46_0_48_2 <= 1
+1 d4_0 +1 d7_0 - t_4_0_7_0 <= 1
+1 d44_2 +1 d55_1 +1 d58_0 - t_44_2_55_1_58_0 <= 2
+1 d46_0 +1 d55_1 +1 d58_0 - t_46_0_55_1_58_0 <= 2
+1 d8_0 +1 d11_0 - t_8_0_11_0 <= 1
+1 d5_0 +1 d7_0 - t_5_0_7_0 <= 1
+1 d40_0 +1 d43_0 - t_40_0_43_0 <= 1
+1 d6_0 +1 d13_1 +1 d18_0 - t_6_0_13_1_18_0 <= 2
+1 d34_2 +1 d35_0 - t_34_2_35_0 <= 1
+1 d34_0 +1 d35_0 - t_34_0_35_0 <= 1
+1 d43_0 +1 d45_0 - t_43_0_45_0 <= 1
+1 d43_0 +1 d45_2 - t_43_0_45_2 <= 1
+1 d32_0 +1 d34_0 - t_32_0_34_0 <= 1
+1 d32_1 +1 d34_1 - t_32_1_34_1 <= 1
+1 d32_2 +1 d34_2 - t_32_2_34_2 <= 1
+1 d9_0 +1 d10_0 - t_9_0_10_0 <= 1
+1 d21_0 +1 d23_0 - t_21_0_23_0 <= 1
+1 d43_0 +1 d55_1 +1 d58_0 - t_43_0_55_1_58_0 <= 2
+1 d36_0 +1 d50_0 - t_36_0_50_0 <= 1
+1 d36_1 +1 d50_1 - t_36_1_50_1 <= 1
+1 d36_2 +1 d50_2 - t_36_2_50_2 <= 1
+1 d45_2 +1 d55_1 +1 d58_0 - t_45_2_55_1_58_0 <= 2
+1 d43_0 +1 d44_0 - t_43_0_44_0 <= 1
+1 d43_0 +1 d44_2 - t_43_0_44_2 <= 1
+1 d34_2 +1 d39_0 - t_34_2_39_0 <= 1
+1 d34_0 +1 d39_0 - t_34_0_39_0 <= 1
+1 d38_2 +1 d43_0 - t_38_2_43_0 <= 1
+1 d38_0 +1 d43_0 - t_38_0_43_0 <= 1
+1 d62_1 +1 d63_0 - t_62_1_63_0 <= 1
+1 d38_2 +1 d40_0 - t_38_2_40_0 <= 1
+1 d38_0 +1 d40_0 - t_38_0_40_0 <= 1
+1 d13_0 +1 d17_0 - t_13_0_17_0 <= 1
+1 d13_1 +1 d17_1 - t_13_1_17_1 <= 1
+1 d13_2 +1 d17_2 - t_13_2_17_2 <= 1
+1 d36_0 +1 d48_0 - t_36_0_48_0 <= 1
+1 d36_1 +1 d48_1 - t_36_1_48_1 <= 1
+1 d36_2 +1 d48_2 - t_36_2_48_2 <= 1
+1 d36_2 +1 d55_1 +1 d58_0 - t_36_2_55_1_58_0 <= 2
+1 d43_0 +1 d49_0 - t_43_0_49_0 <= 1
+1 d43_0 +1 d49_2 - t_43_0_49_2 <= 1
+1 d52_0 +1 d55_0 - t_52_0_55_0 <= 1
+1 d52_0 +1 d55_2 - t_52_0_55_2 <= 1
+1 d47_0 +1 d50_0 - t_47_0_50_0 <= 1
+1 d47_1 +1 d50_1 - t_47_1_50_1 <= 1
+1 d47_2 +1 d50_2 - t_47_2_50_2 <= 1
+1 d38_0 +1 d44_0 - t_38_0_44_0 <= 1
+1 d38_1 +1 d44_1 - t_38_1_44_1 <= 1
+1 d38_2 +1 d44_2 - t_38_2_44_2 <= 1
+1 d52_0 +1 d56_0 - t_52_0_56_0 <= 1
+1 d5_0 +1 d13_1 +1 d20_0 - t_5_0_13_1_20_0 <= 2
+1 d40_0 +1 d41_0 - t_40_0_41_0 <= 1
+1 d40_0 +1 d41_2 - t_40_0_41_2 <= 1
+1 d41_0 +1 d42_0 - t_41_0_42_0 <= 1
+1 d41_1 +1 d42_1 - t_41_1_42_1 <= 1
+1 d41_2 +1 d42_2 - t_41_2_42_2 <= 1
+1 d62_1 +1 d66_0 - t_62_1_66_0 <= 1
+1 d41_0 +1 d45_0 - t_41_0_45_0 <= 1
+1 d41_1 +1 d45_1 - t_41_1_45_1 <= 1
+1 d41_2 +1 d45_2 - t_41_2_45_2 <= 1
+1 d47_0 +1 d48_0 - t_47_0_48_0 <= 1
+1 d47_1 +1 d48_1 - t_47_1_48_1 <= 1
+1 d47_2 +1 d48_2 - t_47_2_48_2 <= 1
+1 d64_0 +1 d65_0 - t_64_0_65_0 <= 1
+1 d64_1 +1 d65_1 - t_64_1_65_1 <= 1
+1 d64_2 +1 d65_2 - t_64_2_65_2 <= 1
+1 d47_0 +1 d51_0 - t_47_0_51_0 <= 1
+1 d47_1 +1 d51_1 - t_47_1_51_1 <= 1
+1 d47_2 +1 d51_2 - t_47_2_51_2 <= 1
+1 d53_0 +1 d54_0 - t_53_0_54_0 <= 1
+1 d40_0 +1 d46_0 - t_40_0_46_0 <= 1
+1 d45_0 +1 d50_0 - t_45_0_50_0 <= 1
+1 d45_1 +1 d50_1 - t_45_1_50_1 <= 1
+1 d45_2 +1 d50_2 - t_45_2_50_2 <= 1
+1 d35_0 +1 d37_0 - t_35_0_37_0 <= 1
+1 d35_0 +1 d37_2 - t_35_0_37_2 <= 1
+1 d39_0 +1 d41_0 - t_39_0_41_0 <= 1
+1 d39_0 +1 d41_2 - t_39_0_41_2 <= 1
+1 d42_2 +1 d46_0 - t_42_2_46_0 <= 1
+1 d42_0 +1 d46_0 - t_42_0_46_0 <= 1
+1 d41_0 +1 d44_0 - t_41_0_44_0 <= 1
+1 d41_1 +1 d44_1 - t_41_1_44_1 <= 1
+1 d41_2 +1 d44_2 - t_41_2_44_2 <= 1
+1 d45_2 +1 d46_0 - t_45_2_46_0 <= 1
+1 d45_0 +1 d46_0 - t_45_0_46_0 <= 1
+1 d38_0 +1 d41_0 - t_38_0_41_0 <= 1
+1 d38_1 +1 d41_1 - t_38_1_41_1 <= 1
+1 d38_2 +1 d41_2 - t_38_2_41_2 <= 1
+1 d8_0 +1 d17_1 +1 d23_0 - t_8_0_17_1_23_0 <= 2
+1 d44_0 +1 d48_0 - t_44_0_48_0 <= 1
+1 d44_1 +1 d48_1 - t_44_1_48_1 <= 1
+1 d44_2 +1 d48_2 - t_44_2_48_2 <= 1
+1 d37_2 +1 d43_0 - t_37_2_43_0 <= 1
+1 d37_0 +1 d43_0 - t_37_0_43_0 <= 1
+1 d11_0 +1 d12_0 - t_11_0_12_0 <= 1
+1 d10_0 +1 d11_0 - t_10_0_11_0 <= 1
+1 d54_0 +1 d56_0 - t_54_0_56_0 <= 1
+1 d45_0 +1 d48_0 - t_45_0_48_0 <= 1
+1 d45_1 +1 d48_1 - t_45_1_48_1 <= 1
+1 d45_2 +1 d48_2 - t_45_2_48_2 <= 1
+1 d44_2 +1 d46_0 - t_44_2_46_0 <= 1
+1 d44_0 +1 d46_0 - t_44_0_46_0 <= 1
+1 d14_0 +1 d16_0 - t_14_0_16_0 <= 1
+1 d14_1 +1 d16_1 - t_14_1_16_1 <= 1
+1 d14_2 +1 d16_2 - t_14_2_16_2 <= 1
+1 d38_2 +1 d46_0 - t_38_2_46_0 <= 1
+1 d38_0 +1 d46_0 - t_38_0_46_0 <= 1
+1 d42_0 +1 d50_0 - t_42_0_50_0 <= 1
+1 d42_1 +1 d50_1 - t_42_1_50_1 <= 1
+1 d42_2 +1 d50_2 - t_42_2_50_2 <= 1
+1 d41_0 +1 d49_0 - t_41_0_49_0 <= 1
+1 d41_1 +1 d49_1 - t_41_1_49_1 <= 1
+1 d41_2 +1 d49_2 - t_41_2_49_2 <= 1
+1 d39_0 +1 d55_1 +1 d58_0 - t_39_0_55_1_58_0 <= 2
+1 d36_2 +1 d39_0 - t_36_2_39_0 <= 1
+1 d36_0 +1 d39_0 - t_36_0_39_0 <= 1
+1 d7_0 +1 d13_1 +1 d19_0 - t_7_0_13_1_19_0 <= 2
+1 d31_0 +1 d33_0 - t_31_0_33_0 <= 1
+1 d31_1 +1 d33_1 - t_31_1_33_1 <= 1
+1 d31_2 +1 d33_2 - t_31_2_33_2 <= 1
+1 d35_0 +1 d39_0 - t_35_0_39_0 <= 1
+1 d8_0 +1 d17_1 +1 d22_0 - t_8_0_17_1_22_0 <= 2
+1 d5_0 +1 d15_1 - t_5_0_15_1 <= 1
+1 d46_0 +1 d49_0 - t_46_0_49_0 <= 1
+1 d46_0 +1 d49_2 - t_46_0_49_2 <= 1
+1 d42_0 +1 d48_0 - t_42_0_48_0 <= 1
+1 d42_1 +1 d48_1 - t_42_1_48_1 <= 1
+1 d42_2 +1 d48_2 - t_42_2_48_2 <= 1
+1 d49_0 +1 d50_0 - t_49_0_50_0 <= 1
+1 d49_1 +1 d50_1 - t_49_1_50_1 <= 1
+1 d49_2 +1 d50_2 - t_49_2_50_2 <= 1
+1 d36_2 +1 d40_0 - t_36_2_40_0 <= 1
+1 d36_0 +1 d40_0 - t_36_0_40_0 <= 1
+1 d5_0 +1 d13_1 +1 d19_0 - t_5_0_13_1_19_0 <= 2
+1 d39_0 +1 d43_0 - t_39_0_43_0 <= 1
+1 d9_0 +1 d12_0 - t_9_0_12_0 <= 1
+1 d36_0 +1 d44_0 - t_36_0_44_0 <= 1
+1 d36_1 +1 d44_1 - t_36_1_44_1 <= 1
+1 d36_2 +1 d44_2 - t_36_2_44_2 <= 1
+1 d20_0 +1 d22_0 - t_20_0_22_0 <= 1
+1 d33_2 +1 d40_0 - t_33_2_40_0 <= 1
+1 d33_0 +1 d40_0 - t_33_0_40_0 <= 1
+1 d37_2 +1 d39_0 - t_37_2_39_0 <= 1
+1 d37_0 +1 d39_0 - t_37_0_39_0 <= 1
+1 d52_0 +1 d53_0 - t_52_0_53_0 <= 1
+1 d32_2 +1 d40_0 - t_32_2_40_0 <= 1
+1 d32_0 +1 d40_0 - t_32_0_40_0 <= 1
+1 d44_0 +1 d47_0 - t_44_0_47_0 <= 1
+1 d44_1 +1 d47_1 - t_44_1_47_1 <= 1
+1 d44_2 +1 d47_2 - t_44_2_47_2 <= 1
+1 d33_0 +1 d38_0 - t_33_0_38_0 <= 1
+1 d33_1 +1 d38_1 - t_33_1_38_1 <= 1
+1 d33_2 +1 d38_2 - t_33_2_38_2 <= 1
+1 d40_0 +1 d45_0 - t_40_0_45_0 <= 1
+1 d40_0 +1 d45_2 - t_40_0_45_2 <= 1
+1 d39_0 +1 d40_0 - t_39_0_40_0 <= 1
+1 d40_0 +1 d44_0 - t_40_0_44_0 <= 1
+1 d40_0 +1 d44_2 - t_40_0_44_2 <= 1
+1 d19_0 +1 d23_0 - t_19_0_23_0 <= 1
+1 d32_0 +1 d44_0 - t_32_0_44_0 <= 1
+1 d32_1 +1 d44_1 - t_32_1_44_1 <= 1
+1 d32_2 +1 d44_2 - t_32_2_44_2 <= 1
+1 d37_0 +1 d45_0 - t_37_0_45_0 <= 1
+1 d37_1 +1 d45_1 - t_37_1_45_1 <= 1
+1 d37_2 +1 d45_2 - t_37_2_45_2 <= 1
+1 d44_0 +1 d45_0 - t_44_0_45_0 <= 1
+1 d44_1 +1 d45_1 - t_44_1_45_1 <= 1
+1 d44_2 +1 d45_2 - t_44_2_45_2 <= 1
+1 d40_0 +1 d42_0 - t_40_0_42_0 <= 1
+1 d40_0 +1 d42_2 - t_40_0_42_2 <= 1
+1 d39_0 +1 d44_0 - t_39_0_44_0 <= 1
+1 d39_0 +1 d44_2 - t_39_0_44_2 <= 1
+1 d6_0 +1 d7_0 - t_6_0_7_0 <= 1
+1 d28_2 +1 d29_0 - t_28_2_29_0 <= 1
+1 d28_0 +1 d29_0 - t_28_0_29_0 <= 1
+1 d42_0 +1 d45_0 - t_42_0_45_0 <= 1
+1 d42_1 +1 d45_1 - t_42_1_45_1 <= 1
+1 d42_2 +1 d45_2 - t_42_2_45_2 <= 1
+1 d63_0 +1 d64_1 - t_63_0_64_1 <= 1
+1 d37_0 +1 d38_0 - t_37_0_38_0 <= 1
+1 d37_1 +1 d38_1 - t_37_1_38_1 <= 1
+1 d37_2 +1 d38_2 - t_37_2_38_2 <= 1
+1 d27_0 +1 d28_0 - t_27_0_28_0 <= 1
+1 d27_0 +1 d28_2 - t_27_0_28_2 <= 1
+1 d6_0 +1 d15_1 - t_6_0_15_1 <= 1
+1 d29_0 +1 d31_0 - t_29_0_31_0 <= 1
+1 d29_0 +1 d31_2 - t_29_0_31_2 <= 1
+1 d20_0 +1 d21_0 - t_20_0_21_0 <= 1
+1 d45_0 +1 d49_0 - t_45_0_49_0 <= 1
+1 d45_1 +1 d49_1 - t_45_1_49_1 <= 1
+1 d45_2 +1 d49_2 - t_45_2_49_2 <= 1
+1 d38_0 +1 d42_0 - t_38_0_42_0 <= 1
+1 d38_1 +1 d42_1 - t_38_1_42_1 <= 1
+1 d38_2 +1 d42_2 - t_38_2_42_2 <= 1
+1 d37_0 +1 d49_0 - t_37_0_49_0 <= 1
+1 d37_1 +1 d49_1 - t_37_1_49_1 <= 1
+1 d37_2 +1 d49_2 - t_37_2_49_2 <= 1
+1 d31_2 +1 d35_0 - t_31_2_35_0 <= 1
+1 d31_0 +1 d35_0 - t_31_0_35_0 <= 1
+1 d46_0 +1 d47_0 - t_46_0_47_0 <= 1
+1 d46_0 +1 d47_2 - t_46_0_47_2 <= 1
+1 d5_0 +1 d14_1 - t_5_0_14_1 <= 1
+1 d42_0 +1 d49_0 - t_42_0_49_0 <= 1
+1 d42_1 +1 d49_1 - t_42_1_49_1 <= 1
+1 d42_2 +1 d49_2 - t_42_2_49_2 <= 1
+1 d33_0 +1 d34_0 - t_33_0_34_0 <= 1
+1 d33_1 +1 d34_1 - t_33_1_34_1 <= 1
+1 d33_2 +1 d34_2 - t_33_2_34_2 <= 1
+1 d16_0 +1 d17_0 - t_16_0_17_0 <= 1
+1 d16_1 +1 d17_1 - t_16_1_17_1 <= 1
+1 d16_2 +1 d17_2 - t_16_2_17_2 <= 1
+1 d36_2 +1 d46_0 - t_36_2_46_0 <= 1
+1 d36_0 +1 d46_0 - t_36_0_46_0 <= 1
+1 d64_1 +1 d66_0 - t_64_1_66_0 <= 1
+1 d15_0 +1 d16_0 - t_15_0_16_0 <= 1
+1 d15_1 +1 d16_1 - t_15_1_16_1 <= 1
+1 d15_2 +1 d16_2 - t_15_2_16_2 <= 1
+1 d41_2 +1 d43_0 - t_41_2_43_0 <= 1
+1 d41_0 +1 d43_0 - t_41_0_43_0 <= 1
+1 d55_2 +1 d56_0 - t_55_2_56_0 <= 1
+1 d55_0 +1 d56_0 - t_55_0_56_0 <= 1
+1 d8_0 +1 d9_0 - t_8_0_9_0 <= 1
+1 d43_0 +1 d46_0 - t_43_0_46_0 <= 1
+1 d54_0 +1 d55_0 - t_54_0_55_0 <= 1
+1 d54_0 +1 d55_2 - t_54_0_55_2 <= 1
+1 d34_0 +1 d37_0 - t_34_0_37_0 <= 1
+1 d34_1 +1 d37_1 - t_34_1_37_1 <= 1
+1 d34_2 +1 d37_2 - t_34_2_37_2 <= 1
+1 d37_0 +1 d41_0 - t_37_0_41_0 <= 1
+1 d37_1 +1 d41_1 - t_37_1_41_1 <= 1
+1 d37_2 +1 d41_2 - t_37_2_41_2 <= 1
+1 d6_0 +1 d13_1 +1 d19_0 - t_6_0_13_1_19_0 <= 2
+1 d19_0 +1 d21_0 - t_19_0_21_0 <= 1
+1 d13_0 +1 d15_0 - t_13_0_15_0 <= 1
+1 d13_1 +1 d15_1 - t_13_1_15_1 <= 1
+1 d13_2 +1 d15_2 - t_13_2_15_2 <= 1
+1 d18_0 +1 d19_0 - t_18_0_19_0 <= 1
+1 d37_2 +1 d46_0 - t_37_2_46_0 <= 1
+1 d37_0 +1 d46_0 - t_37_0_46_0 <= 1
+1 d35_0 +1 d36_0 - t_35_0_36_0 <= 1
+1 d35_0 +1 d36_2 - t_35_0_36_2 <= 1
+1 d15_0 +1 d17_0 - t_15_0_17_0 <= 1
+1 d15_1 +1 d17_1 - t_15_1_17_1 <= 1
+1 d15_2 +1 d17_2 - t_15_2_17_2 <= 1
+1 d18_0 +1 d23_0 - t_18_0_23_0 <= 1
+1 d36_2 +1 d43_0 - t_36_2_43_0 <= 1
+1 d36_0 +1 d43_0 - t_36_0_43_0 <= 1
+1 d7_0 +1 d15_1 - t_7_0_15_1 <= 1
+1 d4_0 +1 d5_0 - t_4_0_5_0 <= 1
+1 d33_0 +1 d36_0 - t_33_0_36_0 <= 1
+1 d33_1 +1 d36_1 - t_33_1_36_1 <= 1
+1 d33_2 +1 d36_2 - t_33_2_36_2 <= 1
+1 d7_0 +1 d13_1 +1 d20_0 - t_7_0_13_1_20_0 <= 2
+1 d33_2 +1 d35_0 - t_33_2_35_0 <= 1
+1 d33_0 +1 d35_0 - t_33_0_35_0 <= 1
+1 d37_0 +1 d50_0 - t_37_0_50_0 <= 1
+1 d37_1 +1 d50_1 - t_37_1_50_1 <= 1
+1 d37_2 +1 d50_2 - t_37_2_50_2 <= 1
+1 d21_0 +1 d22_0 - t_21_0_22_0 <= 1
+1 d8_0 +1 d17_1 +1 d21_0 - t_8_0_17_1_21_0 <= 2
+1 d63_0 +1 d65_1 - t_63_0_65_1 <= 1
+1 d18_0 +1 d22_0 - t_18_0_22_0 <= 1
+1 d6_0 +1 d14_1 - t_6_0_14_1 <= 1
+1 d53_0 +1 d56_0 - t_53_0_56_0 <= 1
+1 d36_0 +1 d37_0 - t_36_0_37_0 <= 1
+1 d36_1 +1 d37_1 - t_36_1_37_1 <= 1
+1 d36_2 +1 d37_2 - t_36_2_37_2 <= 1
+1 d43_0 +1 d47_0 - t_43_0_47_0 <= 1
+1 d43_0 +1 d47_2 - t_43_0_47_2 <= 1
+1 d32_2 +1 d35_0 - t_32_2_35_0 <= 1
+1 d32_0 +1 d35_0 - t_32_0_35_0 <= 1
+1 d53_0 +1 d55_0 - t_53_0_55_0 <= 1
+1 d53_0 +1 d55_2 - t_53_0_55_2 <= 1
+1 d37_2 +1 d55_1 +1 d58_0 - t_37_2_55_1_58_0 <= 2
+1 d34_2 +1 d40_0 - t_34_2_40_0 <= 1
+1 d34_0 +1 d40_0 - t_34_0_40_0 <= 1
+1 d42_0 +1 d51_0 - t_42_0_51_0 <= 1
+1 d42_1 +1 d51_1 - t_42_1_51_1 <= 1
+1 d42_2 +1 d51_2 - t_42_2_51_2 <= 1
+1 d7_0 +1 d13_1 +1 d18_0 - t_7_0_13_1_18_0 <= 2
+1 d42_2 +1 d55_1 +1 d58_0 - t_42_2_55_1_58_0 <= 2
+1 d32_0 +1 d33_0 - t_32_0_33_0 <= 1
+1 d32_1 +1 d33_1 - t_32_1_33_1 <= 1
+1 d32_2 +1 d33_2 - t_32_2_33_2 <= 1
+1 d65_1 +1 d66_0 - t_65_1_66_0 <= 1
+1 d5_0 +1 d13_1 +1 d18_0 - t_5_0_13_1_18_0 <= 2
+1 d33_2 +1 d39_0 - t_33_2_39_0 <= 1
+1 d33_0 +1 d39_0 - t_33_0_39_0 <= 1
+1 d28_0 +1 d30_0 - t_28_0_30_0 <= 1
+1 d28_1 +1 d30_1 - t_28_1_30_1 <= 1
+1 d28_2 +1 d30_2 - t_28_2_30_2 <= 1
+1 d19_0 +1 d20_0 - t_19_0_20_0 <= 1
+1 d34_0 +1 d38_0 - t_34_0_38_0 <= 1
+1 d34_1 +1 d38_1 - t_34_1_38_1 <= 1
+1 d34_2 +1 d38_2 - t_34_2_38_2 <= 1
+1 d32_0 +1 d37_0 - t_32_0_37_0 <= 1
+1 d32_1 +1 d37_1 - t_32_1_37_1 <= 1
+1 d32_2 +1 d37_2 - t_32_2_37_2 <= 1
+1 d42_2 +1 d43_0 - t_42_2_43_0 <= 1
+1 d42_0 +1 d43_0 - t_42_0_43_0 <= 1
+1 d29_0 +1 d30_0 - t_29_0_30_0 <= 1
+1 d29_0 +1 d30_2 - t_29_0_30_2 <= 1
+1 d27_0 +1 d30_0 - t_27_0_30_0 <= 1
+1 d27_0 +1 d30_2 - t_27_0_30_2 <= 1
+1 d48_0 +1 d49_0 - t_48_0_49_0 <= 1
+1 d48_1 +1 d49_1 - t_48_1_49_1 <= 1
+1 d48_2 +1 d49_2 - t_48_2_49_2 <= 1
+1 d44_0 +1 d50_0 - t_44_0_50_0 <= 1
+1 d44_1 +1 d50_1 - t_44_1_50_1 <= 1
+1 d44_2 +1 d50_2 - t_44_2_50_2 <= 1
+1 d31_0 +1 d32_0 - t_31_0_32_0 <= 1
+1 d31_1 +1 d32_1 - t_31_1_32_1 <= 1
+1 d31_2 +1 d32_2 - t_31_2_32_2 <= 1
+1 d36_0 +1 d42_0 - t_36_0_42_0 <= 1
+1 d36_1 +1 d42_1 - t_36_1_42_1 <= 1
+1 d36_2 +1 d42_2 - t_36_2_42_2 <= 1
+1 d36_0 +1 d45_0 - t_36_0_45_0 <= 1
+1 d36_1 +1 d45_1 - t_36_1_45_1 <= 1
+1 d36_2 +1 d45_2 - t_36_2_45_2 <= 1
+1 d9_0 +1 d11_0 - t_9_0_11_0 <= 1
+1 d33_0 +1 d44_0 - t_33_0_44_0 <= 1
+1 d33_1 +1 d44_1 - t_33_1_44_1 <= 1
+1 d33_2 +1 d44_2 - t_33_2_44_2 <= 1
+1 d13_0 +1 d14_0 - t_13_0_14_0 <= 1
+1 d13_1 +1 d14_1 - t_13_1_14_1 <= 1
+1 d13_2 +1 d14_2 - t_13_2_14_2 <= 1
+1 d36_0 +1 d38_0 - t_36_0_38_0 <= 1
+1 d36_1 +1 d38_1 - t_36_1_38_1 <= 1
+1 d36_2 +1 d38_2 - t_36_2_38_2 <= 1
+1 d38_2 +1 d55_1 +1 d58_0 - t_38_2_55_1_58_0 <= 2
+1 d37_2 +1 d40_0 - t_37_2_40_0 <= 1
+1 d37_0 +1 d40_0 - t_37_0_40_0 <= 1
+1 d43_0 +1 d50_0 - t_43_0_50_0 <= 1
+1 d43_0 +1 d50_2 - t_43_0_50_2 <= 1
+1 d5_0 +1 d6_0 - t_5_0_6_0 <= 1
+1 d7_0 +1 d14_1 - t_7_0_14_1 <= 1
+1 d42_0 +1 d47_0 - t_42_0_47_0 <= 1
+1 d42_1 +1 d47_1 - t_42_1_47_1 <= 1
+1 d42_2 +1 d47_2 - t_42_2_47_2 <= 1
+1 d45_0 +1 d47_0 - t_45_0_47_0 <= 1
+1 d45_1 +1 d47_1 - t_45_1_47_1 <= 1
+1 d45_2 +1 d47_2 - t_45_2_47_2 <= 1
+1 d36_0 +1 d49_0 - t_36_0_49_0 <= 1
+1 d36_1 +1 d49_1 - t_36_1_49_1 <= 1
+1 d36_2 +1 d49_2 - t_36_2_49_2 <= 1
+1 d43_0 +1 d48_0 - t_43_0_48_0 <= 1
+1 d43_0 +1 d48_2 - t_43_0_48_2 <= 1
+1 d37_0 +1 d44_0 - t_37_0_44_0 <= 1
+1 d37_1 +1 d44_1 - t_37_1_44_1 <= 1
+1 d37_2 +1 d44_2 - t_37_2_44_2 <= 1
+1 d32_2 +1 d39_0 - t_32_2_39_0 <= 1
+1 d32_0 +1 d39_0 - t_32_0_39_0 <= 1
+1 d62_0 +1 d64_0 - t_62_0_64_0 <= 1
+1 d62_1 +1 d64_1 - t_62_1_64_1 <= 1
+1 d62_2 +1 d64_2 - t_62_2_64_2 <= 1
+1 d14_0 +1 d15_0 - t_14_0_15_0 <= 1
+1 d14_1 +1 d15_1 - t_14_1_15_1 <= 1
+1 d14_2 +1 d15_2 - t_14_2_15_2 <= 1
+1 d42_0 +1 d44_0 - t_42_0_44_0 <= 1
+1 d42_1 +1 d44_1 - t_42_1_44_1 <= 1
+1 d42_2 +1 d44_2 - t_42_2_44_2 <= 1
+1 d39_0 +1 d42_0 - t_39_0_42_0 <= 1
+1 d39_0 +1 d42_2 - t_39_0_42_2 <= 1
+1  d13_0  +1  d13_1  +1  d13_2  +1  d13_3  = 1
+1  d14_0  +1  d14_1  +1  d14_2  +1  d14_3  = 1
+1  d15_0  +1  d15_1  +1  d15_2  +1  d15_3  = 1
+1  d16_0  +1  d16_1  +1  d16_2  +1  d16_3  = 1
+1  d17_0  +1  d17_1  +1  d17_2  +1  d17_3  = 1
+1  d25_0  +1  d25_1  +1  d25_2  +1  d25_3  = 1
+1  d26_0  +1  d26_1  +1  d26_2  +1  d26_3  = 1
+1  d28_0  +1  d28_1  +1  d28_2  +1  d28_3  = 1
+1  d30_0  +1  d30_1  +1  d30_2  +1  d30_3  = 1
+1  d31_0  +1  d31_1  +1  d31_2  +1  d31_3  = 1
+1  d32_0  +1  d32_1  +1  d32_2  +1  d32_3  = 1
+1  d33_0  +1  d33_1  +1  d33_2  +1  d33_3  = 1
+1  d34_0  +1  d34_1  +1  d34_2  +1  d34_3  = 1
+1  d36_0  +1  d36_1  +1  d36_2  +1  d36_3  = 1
+1  d37_0  +1  d37_1  +1  d37_2  +1  d37_3  = 1
+1  d38_0  +1  d38_1  +1  d38_2  +1  d38_3  = 1
+1  d41_0  +1  d41_1  +1  d41_2  +1  d41_3  = 1
+1  d42_0  +1  d42_1  +1  d42_2  +1  d42_3  = 1
+1  d44_0  +1  d44_1  +1  d44_2  +1  d44_3  = 1
+1  d45_0  +1  d45_1  +1  d45_2  +1  d45_3  = 1
+1  d47_0  +1  d47_1  +1  d47_2  +1  d47_3  = 1
+1  d48_0  +1  d48_1  +1  d48_2  +1  d48_3  = 1
+1  d49_0  +1  d49_1  +1  d49_2  +1  d49_3  = 1
+1  d50_0  +1  d50_1  +1  d50_2  +1  d50_3  = 1
+1  d51_0  +1  d51_1  +1  d51_2  +1  d51_3  = 1
+1  d55_0  +1  d55_1  +1  d55_2  +1  d55_3  = 1
+1  d62_0  +1  d62_1  +1  d62_2  +1  d62_3  = 1
+1  d64_0  +1  d64_1  +1  d64_2  +1  d64_3  = 1
+1  d65_0  +1  d65_1  +1  d65_2  +1  d65_3  = 1


Bounds
t_52_0_55_2 <= 1
t_52_0_55_0 <= 1
t_18_0_20_0 <= 1
t_33_0_35_0 <= 1
t_33_2_35_0 <= 1
t_32_1_37_1 <= 1
t_6_0_13_1_18_0 <= 1
t_38_2_41_2 <= 1
t_30_0_31_0 <= 1
t_62_2_64_2 <= 1
t_63_0_64_1 <= 1
t_33_2_39_0 <= 1
t_44_1_48_1 <= 1
t_44_0_48_0 <= 1
t_34_1_37_1 <= 1
t_38_2_43_0 <= 1
t_37_2_39_0 <= 1
t_42_1_49_1 <= 1
t_14_0_16_0 <= 1
t_21_0_22_0 <= 1
t_55_0_56_0 <= 1
t_18_0_22_0 <= 1
t_36_1_38_1 <= 1
t_54_0_56_0 <= 1
t_52_0_53_0 <= 1
t_41_1_51_1 <= 1
t_42_2_50_2 <= 1
t_7_0_13_1_19_0 <= 1
t_62_1_66_0 <= 1
t_32_2_40_0 <= 1
t_44_2_45_2 <= 1
t_11_0_12_0 <= 1
t_44_0_46_0 <= 1
t_42_1_47_1 <= 1
t_34_2_40_0 <= 1
t_42_0_51_0 <= 1
t_38_0_39_0 <= 1
t_32_2_44_2 <= 1
t_41_0_44_0 <= 1
t_35_0_37_0 <= 1
t_35_0_37_2 <= 1
t_41_0_42_0 <= 1
t_16_0_17_0 <= 1
t_15_2_16_2 <= 1
t_19_0_21_0 <= 1
t_35_0_39_0 <= 1
t_20_0_22_0 <= 1
t_62_1_64_1 <= 1
t_19_0_23_0 <= 1
t_44_2_47_2 <= 1
t_32_0_37_0 <= 1
t_36_2_37_2 <= 1
t_62_0_64_0 <= 1
t_27_0_28_2 <= 1
t_27_0_28_0 <= 1
t_37_1_45_1 <= 1
t_43_0_50_0 <= 1
t_43_0_50_2 <= 1
t_37_1_41_1 <= 1
t_41_0_48_0 <= 1
t_45_0_48_0 <= 1
t_24_0_26_0 <= 1
t_24_0_26_2 <= 1
t_41_2_55_1_58_0 <= 1
t_41_0_46_0 <= 1
t_38_0_40_0 <= 1
t_6_0_13_1_19_0 <= 1
t_45_0_46_0 <= 1
t_36_2_38_2 <= 1
t_46_0_47_2 <= 1
t_46_0_47_0 <= 1
t_9_0_11_0 <= 1
t_37_0_39_0 <= 1
t_14_2_16_2 <= 1
t_30_1_31_1 <= 1
t_38_2_55_1_58_0 <= 1
t_45_2_49_2 <= 1
t_22_0_23_0 <= 1
t_48_2_50_2 <= 1
t_32_1_38_1 <= 1
t_48_1_51_1 <= 1
t_33_2_34_2 <= 1
t_49_1_50_1 <= 1
t_15_2_17_2 <= 1
t_38_2_46_0 <= 1
t_7_0_13_1_18_0 <= 1
t_46_0_49_0 <= 1
t_46_0_49_2 <= 1
t_38_2_40_0 <= 1
t_33_2_44_2 <= 1
t_33_2_36_2 <= 1
t_47_1_51_1 <= 1
t_32_1_34_1 <= 1
t_38_0_42_0 <= 1
t_33_2_38_2 <= 1
t_45_2_47_2 <= 1
t_34_1_36_1 <= 1
t_38_2_42_2 <= 1
t_33_2_40_0 <= 1
t_36_0_39_0 <= 1
t_15_1_17_1 <= 1
t_14_0_15_0 <= 1
t_6_0_14_1 <= 1
t_21_0_23_0 <= 1
t_44_2_48_2 <= 1
t_41_1_50_1 <= 1
t_54_0_55_0 <= 1
t_45_1_50_1 <= 1
t_54_0_55_2 <= 1
t_32_0_35_0 <= 1
t_38_2_44_2 <= 1
t_44_2_46_0 <= 1
t_29_0_30_2 <= 1
t_28_0_29_0 <= 1
t_29_0_30_0 <= 1
t_47_0_49_0 <= 1
t_34_0_39_0 <= 1
t_44_0_45_0 <= 1
t_32_0_38_0 <= 1
t_49_2_50_2 <= 1
t_44_0_47_0 <= 1
t_42_0_50_0 <= 1
t_41_2_50_2 <= 1
t_37_2_38_2 <= 1
t_64_1_65_1 <= 1
t_28_1_30_1 <= 1
t_7_0_14_1 <= 1
t_42_2_51_2 <= 1
t_28_2_29_0 <= 1
t_48_0_51_0 <= 1
t_38_0_46_0 <= 1
t_41_0_45_0 <= 1
t_38_0_44_0 <= 1
t_31_0_33_0 <= 1
t_34_0_37_0 <= 1
t_41_0_43_0 <= 1
t_34_0_35_0 <= 1
t_42_1_51_1 <= 1
t_37_1_44_1 <= 1
t_36_1_42_1 <= 1
t_36_0_50_0 <= 1
t_39_0_55_1_58_0 <= 1
t_32_2_34_2 <= 1
t_24_0_25_2 <= 1
t_24_0_25_0 <= 1
t_31_0_35_0 <= 1
t_13_1_14_1 <= 1
t_32_2_38_2 <= 1
t_41_0_49_0 <= 1
t_45_0_49_0 <= 1
t_47_2_49_2 <= 1
t_38_0_41_0 <= 1
t_45_0_47_0 <= 1
t_37_0_38_0 <= 1
t_50_2_51_2 <= 1
t_42_2_55_1_58_0 <= 1
t_34_0_38_0 <= 1
t_45_2_48_2 <= 1
t_36_1_44_1 <= 1
t_48_2_51_2 <= 1
t_48_1_50_1 <= 1
t_55_2_56_0 <= 1
t_47_1_50_1 <= 1
t_46_0_48_0 <= 1
t_46_0_48_2 <= 1
t_45_2_46_0 <= 1
t_36_1_48_1 <= 1
t_65_1_66_0 <= 1
t_37_1_49_1 <= 1
t_38_0_43_0 <= 1
t_42_2_48_2 <= 1
t_14_2_15_2 <= 1
t_32_1_44_1 <= 1
t_46_0_55_1_58_0 <= 1
t_40_0_55_1_58_0 <= 1
t_36_2_43_0 <= 1
t_39_0_41_2 <= 1
t_39_0_41_0 <= 1
t_15_1_16_1 <= 1
t_36_0_38_0 <= 1
t_39_0_43_0 <= 1
t_13_2_17_2 <= 1
t_39_0_45_2 <= 1
t_39_0_45_0 <= 1
t_6_0_15_1 <= 1
t_33_0_40_0 <= 1
t_5_0_13_1_18_0 <= 1
t_32_0_34_0 <= 1
t_36_0_37_0 <= 1
t_47_0_48_0 <= 1
t_18_0_19_0 <= 1
t_32_2_33_2 <= 1
t_36_2_49_2 <= 1
t_64_1_66_0 <= 1
t_41_2_51_2 <= 1
t_32_2_37_2 <= 1
t_36_2_45_2 <= 1
t_7_0_15_1 <= 1
t_37_0_50_0 <= 1
t_37_2_41_2 <= 1
t_35_0_36_2 <= 1
t_37_2_43_0 <= 1
t_34_2_35_0 <= 1
t_49_0_50_0 <= 1
t_34_0_36_0 <= 1
t_32_0_33_0 <= 1
t_37_2_45_2 <= 1
t_64_0_65_0 <= 1
t_29_0_31_2 <= 1
t_29_0_31_0 <= 1
t_36_2_55_1_58_0 <= 1
t_42_1_50_1 <= 1
t_32_2_35_0 <= 1
t_13_1_15_1 <= 1
t_32_2_39_0 <= 1
t_48_0_50_0 <= 1
t_13_1_17_1 <= 1
t_41_1_48_1 <= 1
t_62_1_63_0 <= 1
t_50_0_51_0 <= 1
t_44_1_50_1 <= 1
t_38_1_41_1 <= 1
t_44_2_55_1_58_0 <= 1
t_41_1_45_1 <= 1
t_37_2_49_2 <= 1
t_33_1_36_1 <= 1
t_37_2_50_2 <= 1
t_44_0_50_0 <= 1
t_36_1_45_1 <= 1
t_28_0_30_0 <= 1
t_5_0_13_1_19_0 <= 1
t_7_0_13_1_20_0 <= 1
t_8_0_17_1_21_0 <= 1
t_64_2_65_2 <= 1
t_8_0_17_1_23_0 <= 1
t_36_1_49_1 <= 1
t_41_0_51_0 <= 1
t_6_0_13_1_20_0 <= 1
t_45_1_47_1 <= 1
t_34_2_37_2 <= 1
t_42_2_44_2 <= 1
t_43_0_49_2 <= 1
t_43_0_49_0 <= 1
t_32_0_40_0 <= 1
t_34_2_39_0 <= 1
t_45_1_49_1 <= 1
t_39_0_40_0 <= 1
t_36_2_40_0 <= 1
t_43_0_44_2 <= 1
t_39_0_42_0 <= 1
t_43_0_44_0 <= 1
t_39_0_42_2 <= 1
t_32_0_44_0 <= 1
t_27_0_30_0 <= 1
t_27_0_30_2 <= 1
t_16_2_17_2 <= 1
t_39_0_44_2 <= 1
t_39_0_44_0 <= 1
t_42_0_43_0 <= 1
t_43_0_46_0 <= 1
t_40_0_43_0 <= 1
t_42_2_46_0 <= 1
t_5_0_6_0 <= 1
t_13_2_14_2 <= 1
t_36_2_48_2 <= 1
t_40_0_45_2 <= 1
t_40_0_45_0 <= 1
t_33_1_34_1 <= 1
t_36_2_46_0 <= 1
t_38_1_42_1 <= 1
t_36_2_44_2 <= 1
t_42_0_49_0 <= 1
t_38_1_44_1 <= 1
t_13_0_14_0 <= 1
t_38_2_39_0 <= 1
t_36_2_42_2 <= 1
t_41_2_48_2 <= 1
t_42_0_47_0 <= 1
t_48_2_49_2 <= 1
t_37_2_40_0 <= 1
t_42_0_45_0 <= 1
t_8_0_11_0 <= 1
t_47_2_48_2 <= 1
t_33_1_38_1 <= 1
t_41_2_44_2 <= 1
t_40_0_41_2 <= 1
t_40_0_41_0 <= 1
t_41_2_46_0 <= 1
t_37_2_44_2 <= 1
t_40_0_42_2 <= 1
t_45_0_50_0 <= 1
t_32_0_39_0 <= 1
t_15_0_17_0 <= 1
t_30_2_31_2 <= 1
t_41_1_49_1 <= 1
t_4_0_5_0 <= 1
t_41_1_42_1 <= 1
t_4_0_7_0 <= 1
t_37_2_46_0 <= 1
t_36_0_45_0 <= 1
t_31_2_32_2 <= 1
t_47_0_51_0 <= 1
t_28_2_30_2 <= 1
t_41_1_44_1 <= 1
t_31_1_33_1 <= 1
t_41_2_42_2 <= 1
t_14_1_15_1 <= 1
t_40_0_46_0 <= 1
t_42_2_49_2 <= 1
t_5_0_14_1 <= 1
t_37_0_41_0 <= 1
t_37_1_38_1 <= 1
t_8_0_17_1_22_0 <= 1
t_44_2_50_2 <= 1
t_47_2_50_2 <= 1
t_36_0_49_0 <= 1
t_42_2_45_2 <= 1
t_47_1_49_1 <= 1
t_41_0_50_0 <= 1
t_43_0_48_2 <= 1
t_43_0_48_0 <= 1
t_42_2_47_2 <= 1
t_34_2_36_2 <= 1
t_36_1_50_1 <= 1
t_36_0_42_0 <= 1
t_37_0_49_0 <= 1
t_53_0_56_0 <= 1
t_34_2_38_2 <= 1
t_45_1_48_1 <= 1
t_53_0_54_0 <= 1
t_42_1_45_1 <= 1
t_43_0_45_2 <= 1
t_43_0_45_0 <= 1
t_37_0_45_0 <= 1
t_37_0_43_0 <= 1
t_43_0_47_0 <= 1
t_43_0_47_2 <= 1
t_34_0_40_0 <= 1
t_37_1_50_1 <= 1
t_36_1_37_1 <= 1
t_40_0_42_0 <= 1
t_44_1_47_1 <= 1
t_5_0_7_0 <= 1
t_13_2_15_2 <= 1
t_33_0_38_0 <= 1
t_40_0_44_2 <= 1
t_40_0_44_0 <= 1
t_44_1_45_1 <= 1
t_52_0_56_0 <= 1
t_36_0_40_0 <= 1
t_46_0_50_2 <= 1
t_46_0_50_0 <= 1
t_9_0_12_0 <= 1
t_42_0_48_0 <= 1
t_63_0_65_1 <= 1
t_48_0_49_0 <= 1
t_41_2_49_2 <= 1
t_42_0_46_0 <= 1
t_33_0_36_0 <= 1
t_42_0_44_0 <= 1
t_18_0_23_0 <= 1
t_41_2_45_2 <= 1
t_31_0_32_0 <= 1
t_33_1_44_1 <= 1
t_33_0_34_0 <= 1
t_33_0_44_0 <= 1
t_9_0_10_0 <= 1
t_48_1_49_1 <= 1
t_36_2_50_2 <= 1
t_33_0_39_0 <= 1
t_53_0_55_0 <= 1
t_53_0_55_2 <= 1
t_45_2_55_1_58_0 <= 1
t_15_0_16_0 <= 1
t_8_0_9_0 <= 1
t_5_0_15_1 <= 1
t_50_1_51_1 <= 1
t_42_1_48_1 <= 1
t_37_2_55_1_58_0 <= 1
t_45_2_50_2 <= 1
t_35_0_36_0 <= 1
t_36_0_44_0 <= 1
t_31_2_35_0 <= 1
t_20_0_21_0 <= 1
t_36_0_46_0 <= 1
t_35_0_38_2 <= 1
t_35_0_38_0 <= 1
t_13_0_17_0 <= 1
t_31_2_33_2 <= 1
t_47_0_50_0 <= 1
t_13_0_15_0 <= 1
t_31_1_32_1 <= 1
t_41_2_43_0 <= 1
t_19_0_20_0 <= 1
t_14_1_16_1 <= 1
t_16_1_17_1 <= 1
t_43_0_55_1_58_0 <= 1
t_6_0_7_0 <= 1
t_47_2_51_2 <= 1
t_37_0_40_0 <= 1
t_36_0_48_0 <= 1
t_47_1_48_1 <= 1
t_32_1_33_1 <= 1
t_36_2_39_0 <= 1
t_5_0_13_1_20_0 <= 1
t_36_0_43_0 <= 1
t_10_0_11_0 <= 1
t_42_1_44_1 <= 1
t_42_2_43_0 <= 1
t_37_0_46_0 <= 1
t_37_0_44_0 <= 1
t_34_1_38_1 <= 1
t = 1

Binary
 d0_0   d1_0   d2_0   d3_0   d4_0   d5_0   d6_0   d7_0   d8_0   d9_0   d10_0  
 d11_0   d12_0   d13_0   d13_1   d13_2   d13_3   d14_0   d14_1   d14_2  
 d14_3   d15_0   d15_1   d15_2   d15_3   d16_0   d16_1   d16_2   d16_3  
 d17_0   d17_1   d17_2   d17_3   d18_0   d19_0   d20_0   d21_0   d22_0  
 d23_0   d24_0   d25_0   d25_1   d25_2   d25_3   d26_0   d26_1   d26_2  
 d26_3   d27_0   d28_0   d28_1   d28_2   d28_3   d29_0   d30_0   d30_1  
 d30_2   d30_3   d31_0   d31_1   d31_2   d31_3   d32_0   d32_1   d32_2  
 d32_3   d33_0   d33_1   d33_2   d33_3   d34_0   d34_1   d34_2   d34_3  
 d35_0   d36_0   d36_1   d36_2   d36_3   d37_0   d37_1   d37_2   d37_3  
 d38_0   d38_1   d38_2   d38_3   d39_0   d40_0   d41_0   d41_1   d41_2  
 d41_3   d42_0   d42_1   d42_2   d42_3   d43_0   d44_0   d44_1   d44_2  
 d44_3   d45_0   d45_1   d45_2   d45_3   d46_0   d47_0   d47_1   d47_2  
 d47_3   d48_0   d48_1   d48_2   d48_3   d49_0   d49_1   d49_2   d49_3  
 d50_0   d50_1   d50_2   d50_3   d51_0   d51_1   d51_2   d51_3   d52_0  
 d53_0   d54_0   d55_0   d55_1   d55_2   d55_3   d56_0   d57_0   d58_0  
 d59_0   d60_0   d61_0   d62_0   d62_1   d62_2   d62_3   d63_0   d64_0  
 d64_1   d64_2   d64_3   d65_0   d65_1   d65_2   d65_3   d66_0  

End